
Gurobi 6.0.4 (win64) logging started 06/18/15 17:35:55

Read LP format model from file E:\Eigene Dateien\Downloads\Michi shit\VRPTWMS2\instances\mip\fuel\N4-C_DV100-C_SV25_F5_9_No_1.lp
Reading time = 0.00 seconds
(null): 129 rows, 72 columns, 447 nonzeros
Optimize a model with 129 rows, 72 columns and 447 nonzeros
Model has 64 quadratic constraints
Coefficient statistics:
  Matrix range    [1e+00, 1e+06]
  Objective range [9e+04, 1e+07]
  Bounds range    [1e+00, 1e+06]
  RHS range       [1e+00, 1e+06]
Presolve removed 36 rows and 16 columns
Presolve time: 0.00s
Presolved: 187 rows, 103 columns, 836 nonzeros
Variable types: 47 continuous, 56 integer (41 binary)
Found heuristic solution: objective 2.116980e+07

Root relaxation: objective 1.110866e+07, 25 iterations, 0.00 seconds

    Nodes    |    Current Node    |     Objective Bounds      |     Work
 Expl Unexpl |  Obj  Depth IntInf | Incumbent    BestBd   Gap | It/Node Time

     0     0 1.1109e+07    0   13 2.1170e+07 1.1109e+07  47.5%     -    0s
     0     0 1.4352e+07    0   11 2.1170e+07 1.4352e+07  32.2%     -    0s
     0     0 2.0931e+07    0    8 2.1170e+07 2.0931e+07  1.13%     -    0s
H    0     0                    2.116710e+07 2.0931e+07  1.12%     -    0s
H    0     0                    2.105510e+07 2.0931e+07  0.59%     -    0s
     0     0 2.0992e+07    0    7 2.1055e+07 2.0992e+07  0.30%     -    0s
     0     0 2.0992e+07    0    1 2.1055e+07 2.0992e+07  0.30%     -    0s
     0     0     cutoff    0      2.1055e+07 2.1055e+07  0.00%     -    0s

Cutting planes:
  Learned: 1
  Gomory: 1

Explored 0 nodes (70 simplex iterations) in 0.02 seconds
Thread count was 4 (of 4 available processors)

Optimal solution found (tolerance 1.00e-04)
Best objective 2.105510000000e+07, best bound 2.105510000000e+07, gap 0.0%
k_c1	40000.0
k_c2	80000.0
k_c3	40000.0
k_c4	1000000.0
k_dN	-0.0
o_1	-0.0
o_2	-0.0
o_3	-0.0
o_4	-0.0
p_1	-0.0
p_2	-0.0
p_3	-0.0
p_4	-0.0
phi_c1	14008.0
phi_c2	27978.0
phi_c3	18110.0
phi_c4	37007.99999999998
phi_d0	50000.0
phi_dN	-0.0
tauD_c1	562200.0
tauD_c2	450000.0
tauD_c3	781225.0
tauD_c4	112500.0
tauD_d0	-0.0
tauD_dN	1000000.0
tauS_c1	831225.0
tauS_c2	882499.0
tauS_c3	852324.0
tauS_c4	871450.0
tauS_d0	-0.0
tauS_dN	1000000.0
x_c1_dN	1.0
x_c2_c1	1.0
x_c3_dN	1.0
x_c4_c3	1.0
x_d0_c2	1.0
x_d0_c4	1.0
